
Log started (V11.0.0) Fri May 16 19:53:15 2008

Tried aggregator 1 time.
Reduced MIP has 250 rows, 10001 columns, and 20050 nonzeros.
Presolve time =    0.08 sec.
Clique table members: 200.
MIP emphasis: balance optimality and feasibility.
MIP search method: dynamic search.
Parallel mode: none, using 1 thread.
Root relaxation solution time =    0.50 sec.

        Nodes                                         Cuts/
   Node  Left     Objective  IInf  Best Integer     Best Node    ItCnt     Gap

*     0+    0                        21960.0000      400.4801      685   98.18%
*     0+    0                          403.0000      400.4801      685    0.63%
      0     0      401.0000    73      403.0000      Fract: 5      693    0.50%
      0     0      401.0000    76      403.0000     Covers: 2      723    0.50%
      0     0      401.0000    76      403.0000     Covers: 2      725    0.50%
      0     2      401.0000    76      403.0000      401.0000      725    0.50%
    100    45      402.0000    63      403.0000      401.0000     4189    0.50%
    200    67      402.0000    84      403.0000      401.0000    42887    0.50%
    300   107    infeasible            403.0000      401.0000    67641    0.50%
    400   151    infeasible            403.0000      401.0000    70224    0.50%
    500   157    infeasible            403.0000      401.0000    97308    0.50%
    600   173      401.0000    67      403.0000      401.0000   104992    0.50%
    700   134    infeasible            403.0000      401.0000   119250    0.50%
    800   113      402.0000    75      403.0000      401.0000   170665    0.50%
    900   125    infeasible            403.0000      401.0000   223821    0.50%
   1000   127    infeasible            403.0000      401.0000   289081    0.50%
Elapsed time =  95.31 sec. (tree size =  0.73 MB, solutions = 2)
   1100   127    infeasible            403.0000      401.0000   353548    0.50%
   1200   133      402.0000    72      403.0000      401.0000   416213    0.50%
   1300   133      402.0000    74      403.0000      401.0000   489446    0.50%
   1400   133      402.0000    71      403.0000      401.0000   556405    0.50%
   1500   135      402.0000    75      403.0000      401.0000   623729    0.50%
   1600   153      402.0000    71      403.0000      401.0000   681634    0.50%
   1700   157    infeasible            403.0000      401.0000   758634    0.50%
   1800   196      402.0000    81      403.0000      401.0000   782636    0.50%
   1900   230      402.0000    74      403.0000      401.0000   800783    0.50%
   2000   255      401.0000    66      403.0000      401.0000   822477    0.50%
Elapsed time = 230.05 sec. (tree size =  1.51 MB, solutions = 2)
   2100   306      402.0000    89      403.0000      401.0000   859170    0.50%
   2200   339      402.0000    56      403.0000      401.0000   905677    0.50%
   2300   361      402.0000    69      403.0000      401.0000   973766    0.50%
   2400   395      402.0000    84      403.0000      401.0000  1025818    0.50%
   2500   430    infeasible            403.0000      401.0000  1075826    0.50%
   2600   484      401.0000    71      403.0000      401.0000  1095345    0.50%
   2700   553      402.0000    70      403.0000      401.0000  1102725    0.50%
   2800   603      401.0000    61      403.0000      401.0000  1139111    0.50%
   2900   682      401.0000    70      403.0000      401.0000  1150622    0.50%
   3000   758        cutoff            403.0000      401.0000  1154537    0.50%
Elapsed time = 337.73 sec. (tree size =  4.80 MB, solutions = 2)
   3100   716        cutoff            403.0000      401.0000  1175423    0.50%
   3200   616        cutoff            403.0000      401.0000  1204487    0.50%
   3300   660      401.0000    69      403.0000      401.0000  1216011    0.50%
   3400   742      401.0000    66      403.0000      401.0000  1223000    0.50%
   3500   795      402.0000    74      403.0000      401.0000  1248061    0.50%
   3600   843    infeasible            403.0000      401.0000  1288481    0.50%
   3700   932      402.0000    71      403.0000      401.0000  1295811    0.50%
   3800   993      402.0000   103      403.0000      401.0000  1323861    0.50%
   3900  1083      402.0000    65      403.0000      401.0000  1329034    0.50%
   4000  1113      402.0000    79      403.0000      401.0000  1391517    0.50%
Elapsed time = 419.39 sec. (tree size =  7.35 MB, solutions = 2)
   4100  1196      401.0000    66      403.0000      401.0000  1398074    0.50%
   4200  1112        cutoff            403.0000      401.0000  1436944    0.50%
   4300  1050      401.0000    44      403.0000      401.0000  1461795    0.50%
   4400  1138      401.0000    58      403.0000      401.0000  1470158    0.50%
   4500  1218    infeasible            403.0000      401.0000  1485264    0.50%
   4600  1278    infeasible            403.0000      401.0000  1518820    0.50%
   4700  1346      402.0000    83      403.0000      401.0000  1526336    0.50%
   4800  1426      402.0000    74      403.0000      401.0000  1545651    0.50%
   4900  1494      401.0000    78      403.0000      401.0000  1555235    0.50%
   5000  1569      402.0000    72      403.0000      401.0000  1568577    0.50%
Elapsed time = 485.13 sec. (tree size = 10.63 MB, solutions = 2)
   5100  1627      401.0000    65      403.0000      401.0000  1592722    0.50%
   5200  1705      402.0000    93      403.0000      401.0000  1604618    0.50%
   5300  1794      401.0000    40      403.0000      401.0000  1615000    0.50%
   5400  1881      401.0000    43      403.0000      401.0000  1630713    0.50%
   5500  1971        cutoff            403.0000      401.0000  1639898    0.50%
   5600  2026    infeasible            403.0000      401.0000  1691259    0.50%
   5700  2113      402.0000    71      403.0000      401.0000  1703032    0.50%
   5800  2194      401.0000    54      403.0000      401.0000  1716063    0.50%
   5900  2278      401.0000    59      403.0000      401.0000  1728562    0.50%
   6000  2365      402.0000    72      403.0000      401.0000  1741528    0.50%
Elapsed time = 554.33 sec. (tree size = 16.73 MB, solutions = 2)
   6100  2448    infeasible            403.0000      401.0000  1762262    0.50%
   6200  2533      402.0000    54      403.0000      401.0000  1778368    0.50%
   6300  2607      401.0000    92      403.0000      401.0000  1792808    0.50%
   6400  2684      402.0000    74      403.0000      401.0000  1813906    0.50%
   6500  2760      401.0000    86      403.0000      401.0000  1825028    0.50%
   6600  2838      402.0000    51      403.0000      401.0000  1840817    0.50%
   6700  2902    infeasible            403.0000      401.0000  1870978    0.50%
   6800  2986      401.0000    91      403.0000      401.0000  1880772    0.50%
   6900  3075      402.0000    97      403.0000      401.0000  1891677    0.50%
   7000  3148      402.0000   112      403.0000      401.0000  1901890    0.50%
Elapsed time = 615.69 sec. (tree size = 23.03 MB, solutions = 2)
   7100  3218      402.0000    94      403.0000      401.0000  1915816    0.50%
   7200  3297      402.0000    85      403.0000      401.0000  1924042    0.50%
   7300  3368    infeasible            403.0000      401.0000  1934743    0.50%
   7400  3384        cutoff            403.0000      401.0000  1985324    0.50%
   7500  3284        cutoff            403.0000      401.0000  2097618    0.50%
   7600  3184        cutoff            403.0000      401.0000  2200929    0.50%
   7700  3084        cutoff            403.0000      401.0000  2290712    0.50%
   7800  2984        cutoff            403.0000      401.0000  2351469    0.50%
   7900  2884        cutoff            403.0000      401.0000  2396965    0.50%
   8000  2784        cutoff            403.0000      401.0000  2447698    0.50%
Elapsed time = 834.75 sec. (tree size = 20.99 MB, solutions = 2)
   8100  2684        cutoff            403.0000      401.0000  2497764    0.50%
   8200  2584        cutoff            403.0000      401.0000  2554050    0.50%
   8300  2484        cutoff            403.0000      401.0000  2610805    0.50%
   8400  2384        cutoff            403.0000      401.0000  2662974    0.50%
   8500  2284        cutoff            403.0000      401.0000  2743606    0.50%
   8600  2184        cutoff            403.0000      401.0000  2848549    0.50%
   8700  2084    infeasible            403.0000      402.0000  3017497    0.25%
   8800  1984    infeasible            403.0000      402.0000  3227673    0.25%
   8900  1884    infeasible            403.0000      402.0000  3432184    0.25%
   9000  1784    infeasible            403.0000      402.0000  3627379    0.25%
Elapsed time = 1191.78 sec. (tree size = 13.65 MB, solutions = 2)
   9100  1684    infeasible            403.0000      402.0000  3805207    0.25%
   9200  1584    infeasible            403.0000      402.0000  4010447    0.25%
   9300  1484    infeasible            403.0000      402.0000  4188828    0.25%
   9400  1384    infeasible            403.0000      402.0000  4396828    0.25%
   9500  1284    infeasible            403.0000      402.0000  4589530    0.25%
   9600  1184    infeasible            403.0000      402.0000  4804456    0.25%
   9700  1084    infeasible            403.0000      402.0000  4988181    0.25%
   9800   984    infeasible            403.0000      402.0000  5207006    0.25%
   9900   884    infeasible            403.0000      402.0000  5430531    0.25%
  10000   784    infeasible            403.0000      402.0000  5613716    0.25%
Elapsed time = 1643.23 sec. (tree size =  6.22 MB, solutions = 2)
  10100   684    infeasible            403.0000      402.0000  5802359    0.25%
  10200   584    infeasible            403.0000      402.0000  6005239    0.25%
  10300   484    infeasible            403.0000      402.0000  6195564    0.25%
  10400   384    infeasible            403.0000      402.0000  6380350    0.25%
  10500   284    infeasible            403.0000      402.0000  6574128    0.25%
  10600   184    infeasible            403.0000      402.0000  6755634    0.25%
  10700    84    infeasible            403.0000      402.0000  6967423    0.25%

Cover cuts applied:  301
Mixed integer rounding cuts applied:  3
Gomory fractional cuts applied:  4

Solution pool: 2 solutions saved.

MIP - Integer optimal solution:  Objective = 4.0300000000e+002
Solution time = 1998.61 sec.  Iterations = 7099050  Nodes = 10785


Incumbent solution
Variable Name           Solution Value
Cmax                        403.000000
X_1_1                         1.000000
X_2_42                        1.000000
X_3_11                        1.000000
X_4_26                        1.000000
X_5_45                        1.000000
X_6_33                        1.000000
X_7_20                        1.000000
X_8_24                        1.000000
X_9_50                        1.000000
X_10_13                       1.000000
X_11_24                       1.000000
X_12_22                       1.000000
X_13_44                       1.000000
X_14_3                        1.000000
X_15_4                        1.000000
X_16_34                       1.000000
X_17_27                       1.000000
X_18_42                       1.000000
X_19_25                       1.000000
X_20_18                       1.000000
X_21_6                        1.000000
X_22_43                       1.000000
X_23_9                        1.000000
X_24_12                       1.000000
X_25_6                        1.000000
X_26_6                        1.000000
X_27_22                       1.000000
X_28_10                       1.000000
X_29_33                       1.000000
X_30_19                       1.000000
X_31_21                       1.000000
X_32_32                       1.000000
X_33_38                       1.000000
X_34_32                       1.000000
X_35_41                       1.000000
X_36_36                       1.000000
X_37_16                       1.000000
X_38_46                       1.000000
X_39_50                       1.000000
X_40_10                       1.000000
X_41_37                       1.000000
X_42_21                       1.000000
X_43_46                       1.000000
X_44_43                       1.000000
X_45_45                       1.000000
X_46_5                        1.000000
X_47_13                       1.000000
X_48_26                       1.000000
X_49_48                       1.000000
X_50_35                       1.000000
X_51_31                       1.000000
X_52_39                       1.000000
X_53_48                       1.000000
X_54_13                       1.000000
X_55_27                       1.000000
X_56_18                       1.000000
X_57_39                       1.000000
X_58_9                        1.000000
X_59_5                        1.000000
X_60_3                        1.000000
X_61_24                       1.000000
X_62_33                       1.000000
X_63_23                       1.000000
X_64_20                       1.000000
X_65_42                       1.000000
X_66_2                        1.000000
X_67_29                       1.000000
X_68_21                       1.000000
X_69_37                       1.000000
X_70_40                       1.000000
X_71_30                       1.000000
X_72_28                       1.000000
X_73_18                       1.000000
X_74_8                        1.000000
X_75_9                        1.000000
X_76_17                       1.000000
X_77_19                       1.000000
X_78_29                       1.000000
X_79_8                        1.000000
X_80_28                       1.000000
X_81_49                       1.000000
X_82_23                       1.000000
X_83_31                       1.000000
X_84_15                       1.000000
X_85_14                       1.000000
X_86_44                       1.000000
X_87_44                       1.000000
X_88_6                        1.000000
X_89_50                       1.000000
X_90_12                       1.000000
X_91_45                       1.000000
X_92_2                        1.000000
X_93_49                       1.000000
X_94_47                       1.000000
X_95_17                       1.000000
X_96_25                       1.000000
X_97_33                       1.000000
X_98_39                       1.000000
X_99_35                       1.000000
X_100_35                      1.000000
X_101_40                      1.000000
X_102_3                       1.000000
X_103_35                      1.000000
X_104_29                      1.000000
X_105_23                      1.000000
X_106_15                      1.000000
X_107_1                       1.000000
X_108_18                      1.000000
X_109_46                      1.000000
X_110_41                      1.000000
X_111_2                       1.000000
X_112_29                      1.000000
X_113_19                      1.000000
X_114_20                      1.000000
X_115_47                      1.000000
X_116_36                      1.000000
X_117_40                      1.000000
X_118_31                      1.000000
X_119_25                      1.000000
X_120_13                      1.000000
X_121_37                      1.000000
X_122_38                      1.000000
X_123_10                      1.000000
X_124_44                      1.000000
X_125_38                      1.000000
X_126_46                      1.000000
X_127_45                      1.000000
X_128_42                      1.000000
X_129_32                      1.000000
X_130_7                       1.000000
X_131_8                       1.000000
X_132_10                      1.000000
X_133_41                      1.000000
X_134_49                      1.000000
X_135_24                      1.000000
X_136_7                       1.000000
X_137_26                      1.000000
X_138_50                      1.000000
X_139_47                      1.000000
X_140_48                      1.000000
X_141_4                       1.000000
X_142_2                       1.000000
X_143_38                      1.000000
X_144_26                      1.000000
X_145_4                       1.000000
X_146_47                      1.000000
X_147_36                      1.000000
X_148_16                      1.000000
X_149_7                       1.000000
X_150_39                      1.000000
X_151_34                      1.000000
X_152_22                      1.000000
X_153_25                      1.000000
X_154_11                      1.000000
X_155_16                      1.000000
X_156_12                      1.000000
X_157_40                      1.000000
X_158_21                      1.000000
X_159_36                      1.000000
X_160_5                       1.000000
X_161_7                       1.000000
X_162_19                      1.000000
X_163_37                      1.000000
X_164_17                      1.000000
X_165_30                      1.000000
X_166_3                       1.000000
X_167_16                      1.000000
X_168_49                      1.000000
X_169_27                      1.000000
X_170_43                      1.000000
X_171_14                      1.000000
X_172_41                      1.000000
X_173_30                      1.000000
X_174_20                      1.000000
X_175_12                      1.000000
X_176_15                      1.000000
X_177_43                      1.000000
X_178_34                      1.000000
X_179_14                      1.000000
X_180_4                       1.000000
X_181_32                      1.000000
X_182_48                      1.000000
X_183_15                      1.000000
X_184_28                      1.000000
X_185_27                      1.000000
X_186_28                      1.000000
X_187_22                      1.000000
X_188_14                      1.000000
X_189_34                      1.000000
X_190_11                      1.000000
X_191_31                      1.000000
X_192_11                      1.000000
X_193_30                      1.000000
X_194_8                       1.000000
X_195_1                       1.000000
X_196_17                      1.000000
X_197_5                       1.000000
X_198_23                      1.000000
X_199_9                       1.000000
X_200_1                       1.000000
All other variables in the range 1-10001 are 0.
